SCIP version 5.0.0 [precision: 8 byte] [memory: block] [mode: optimized] [LP solver: NONE] [GitHash: 3bbd232]
Copyright (C) 2002-2017 Konrad-Zuse-Zentrum fuer Informationstechnik Berlin (ZIB)

External codes: 
  Readline EditLine w  GNU library for command line editing (gnu.org/s/readline)
  CppAD 20160000.1     Algorithmic Differentiation of C++ algorithms developed by B. Bell (www.coin-or.org/CppAD)
  ZLIB 1.2.5           General purpose compression library by J. Gailly and M. Adler (zlib.net)
  GMP 6.1.2            GNU Multiple Precision Arithmetic Library developed by T. Granlund (gmplib.org)

user parameter file <scip.set> not found - using default parameters

read problem <../../Split_data/output/breast/2/1_sample_breast.logreg>
============

File name	:	../../Split_data/output/breast/2/1_sample_breast.logreg
Problem name 	:	1_sample_breast
Number of data	:	155
Number of var	:	33
The given data has linear independence

[dim=1] time: 0.003901
[dim=2] time: 0.008155
[dim=3] time: 0.015442
[dim=4] time: 0.019453
[dim=5] time: 0.023384
[dim=6] time: 0.028949
[dim=7] time: 0.035665
[dim=8] time: 0.040762
[dim=9] Time of forward = 0.044564sec.
AIC: 135.341
k: 8

[dim=33] time: 0.013399
[dim=32] time: 0.027048
[dim=31] time: 0.04046
[dim=30] time: 0.053711
[dim=29] time: 0.062672
[dim=28] time: 0.072379
[dim=27] time: 0.081878
[dim=26] time: 0.089422
[dim=25] time: 0.095905
[dim=24] time: 0.10286
[dim=23] Time of backward = 0.109335sec.
AIC: 108.953
k: 24
